GLPK_model_data_FILE/original_DS_ShiftSche-pulp.sol
Problem:    
Rows:       122
Columns:    79 (77 integer, 77 binary)
Non-zeros:  450
Status:     INTEGER OPTIMAL
Objective:  OBJ = 1 (MINimum)

   No.   Row name        Activity     Lower bound   Upper bound
------ ------------    ------------- ------------- -------------
     1 LB_Staff_Satisfy_Atushi
                                   1             0               
     2 LB_Staff_Satisfy_Ayaka
                                   0             0               
     3 LB_Staff_Satisfy_Hiroshi
                                   0             0               
     4 LB_Staff_Satisfy_Kenichi
                                   1             0               
     5 LB_Staff_Satisfy_Kohei
                                   0             0               
     6 LB_Staff_Satisfy_Masamichi
                                   0             0               
     7 LB_Staff_Satisfy_Mayuko
                                   0             0               
     8 LB_Staff_Satisfy_Shota
                                   0             0               
     9 LB_Staff_Satisfy_Syori
                                   0             0               
    10 LB_Staff_Satisfy_Takuya
                                   1             0               
    11 LB_Staff_Satisfy_Tomoya
                                   0             0               
    12 LB_shift_Fri                2             2               
    13 LB_shift_Mon                4             2               
    14 LB_shift_Sat                4             2               
    15 LB_shift_Sun                4             2               
    16 LB_shift_SunSat_Sat
                                   4             3               
    17 LB_shift_SunSat_Sun
                                   4             3               
    18 LB_shift_Thu                4             2               
    19 LB_shift_Tue                4             2               
    20 LB_shift_Wed                3             2               
    21 PGM_shift_commit_Fri
                                   1             1               
    22 PGM_shift_commit_Mon
                                   1             1               
    23 PGM_shift_commit_Sat
                                   1             1               
    24 PGM_shift_commit_Sun
                                   2             1               
    25 PGM_shift_commit_Thu
                                   1             1               
    26 PGM_shift_commit_Tue
                                   1             1               
    27 PGM_shift_commit_Wed
                                   1             1               
    28 Shift_(AtushiFri)
                                   1                           1 
    29 Shift_(AtushiMon)
                                   1                           1 
    30 Shift_(AtushiSat)
                                   0                           0 
    31 Shift_(AtushiSun)
                                   1                           1 
    32 Shift_(AtushiThu)
                                   0                           0 
    33 Shift_(AtushiTue)
                                   0                           0 
    34 Shift_(AtushiWed)
                                   0                           1 
    35 Shift_(AyakaFri)
                                   0                           1 
    36 Shift_(AyakaMon)
                                   1                           1 
    37 Shift_(AyakaSat)
                                   0                           0 
    38 Shift_(AyakaSun)
                                   0                           0 
    39 Shift_(AyakaThu)
                                   0                           1 
    40 Shift_(AyakaTue)
                                   1                           1 
    41 Shift_(AyakaWed)
                                   0                           1 
    42 Shift_(HiroshiFri)
                                   0                           1 
    43 Shift_(HiroshiMon)
                                   0                           1 
    44 Shift_(HiroshiSat)
                                   1                           1 
    45 Shift_(HiroshiSun)
                                   0                           1 
    46 Shift_(HiroshiThu)
                                   1                           1 
    47 Shift_(HiroshiTue)
                                   0                           1 
    48 Shift_(HiroshiWed)
                                   0                           1 
    49 Shift_(KenichiFri)
                                   0                           0 
    50 Shift_(KenichiMon)
                                   1                           1 
    51 Shift_(KenichiSat)
                                   0                           0 
    52 Shift_(KenichiSun)
                                   0                           0 
    53 Shift_(KenichiThu)
                                   0                           1 
    54 Shift_(KenichiTue)
                                   1                           1 
    55 Shift_(KenichiWed)
                                   1                           1 
    56 Shift_(KoheiFri)
                                   0                           0 
    57 Shift_(KoheiMon)
                                   0                           0 
    58 Shift_(KoheiSat)
                                   0                           0 
    59 Shift_(KoheiSun)
                                   0                           0 
    60 Shift_(KoheiThu)
                                   1                           1 
    61 Shift_(KoheiTue)
                                   1                           1 
    62 Shift_(KoheiWed)
                                   0                           0 
    63 Shift_(MasamichiFri)
                                   0                           0 
    64 Shift_(MasamichiMon)
                                   0                           1 
    65 Shift_(MasamichiSat)
                                   0                           0 
    66 Shift_(MasamichiSun)
                                   0                           1 
    67 Shift_(MasamichiThu)
                                   0                           0 
    68 Shift_(MasamichiTue)
                                   1                           1 
    69 Shift_(MasamichiWed)
                                   1                           1 
    70 Shift_(MayukoFri)
                                   0                           1 
    71 Shift_(MayukoMon)
                                   1                           1 
    72 Shift_(MayukoSat)
                                   0                           0 
    73 Shift_(MayukoSun)
                                   0                           0 
    74 Shift_(MayukoThu)
                                   0                           0 
    75 Shift_(MayukoTue)
                                   0                           0 
    76 Shift_(MayukoWed)
                                   1                           1 
    77 Shift_(ShotaFri)
                                   0                           0 
    78 Shift_(ShotaMon)
                                   0                           0 
    79 Shift_(ShotaSat)
                                   1                           1 
    80 Shift_(ShotaSun)
                                   1                           1 
    81 Shift_(ShotaThu)
                                   0                           0 
    82 Shift_(ShotaTue)
                                   0                           0 
    83 Shift_(ShotaWed)
                                   0                           0 
    84 Shift_(SyoriFri)
                                   0                           1 
    85 Shift_(SyoriMon)
                                   0                           0 
    86 Shift_(SyoriSat)
                                   1                           1 
    87 Shift_(SyoriSun)
                                   1                           1 
    88 Shift_(SyoriThu)
                                   0                           0 
    89 Shift_(SyoriTue)
                                   0                           0 
    90 Shift_(SyoriWed)
                                   0                           0 
    91 Shift_(TakuyaFri)
                                   1                           1 
    92 Shift_(TakuyaMon)
                                   0                           0 
    93 Shift_(TakuyaSat)
                                   0                           0 
    94 Shift_(TakuyaSun)
                                   1                           1 
    95 Shift_(TakuyaThu)
                                   1                           1 
    96 Shift_(TakuyaTue)
                                   0                           0 
    97 Shift_(TakuyaWed)
                                   0                           1 
    98 Shift_(TomoyaFri)
                                   0                           0 
    99 Shift_(TomoyaMon)
                                   0                           0 
   100 Shift_(TomoyaSat)
                                   1                           1 
   101 Shift_(TomoyaSun)
                                   0                           1 
   102 Shift_(TomoyaThu)
                                   1                           1 
   103 Shift_(TomoyaTue)
                                   0                           1 
   104 Shift_(TomoyaWed)
                                   0                           1 
   105 UB_Staff_Satisfy_Atushi
                                   0                           0 
   106 UB_Staff_Satisfy_Ayaka
                                  -1                           0 
   107 UB_Staff_Satisfy_Hiroshi
                                  -1                           0 
   108 UB_Staff_Satisfy_Kenichi
                                   0                           0 
   109 UB_Staff_Satisfy_Kohei
                                  -1                           0 
   110 UB_Staff_Satisfy_Masamichi
                                  -1                           0 
   111 UB_Staff_Satisfy_Mayuko
                                  -1                           0 
   112 UB_Staff_Satisfy_Shota
                                  -1                           0 
   113 UB_Staff_Satisfy_Syori
                                  -1                           0 
   114 UB_Staff_Satisfy_Takuya
                                   0                           0 
   115 UB_Staff_Satisfy_Tomoya
                                  -1                           0 
   116 UB_shift_Fri                2                           4 
   117 UB_shift_Mon                4                           4 
   118 UB_shift_Sat                4                           4 
   119 UB_shift_Sun                4                           4 
   120 UB_shift_Thu                4                           4 
   121 UB_shift_Tue                4                           4 
   122 UB_shift_Wed                3                           4 

   No. Column name       Activity     Lower bound   Upper bound
------ ------------    ------------- ------------- -------------
     1 l                           2             0               
     2 u                           3             0               
     3 x(Atushi,Fri)
                    *              1             0             1 
     4 x(Atushi,Mon)
                    *              1             0             1 
     5 x(Atushi,Sat)
                    *              0             0             1 
     6 x(Atushi,Sun)
                    *              1             0             1 
     7 x(Atushi,Thu)
                    *              0             0             1 
     8 x(Atushi,Tue)
                    *              0             0             1 
     9 x(Atushi,Wed)
                    *              0             0             1 
    10 x(Ayaka,Fri) *              0             0             1 
    11 x(Ayaka,Mon) *              1             0             1 
    12 x(Ayaka,Sat) *              0             0             1 
    13 x(Ayaka,Sun) *              0             0             1 
    14 x(Ayaka,Thu) *              0             0             1 
    15 x(Ayaka,Tue) *              1             0             1 
    16 x(Ayaka,Wed) *              0             0             1 
    17 x(Hiroshi,Fri)
                    *              0             0             1 
    18 x(Hiroshi,Mon)
                    *              0             0             1 
    19 x(Hiroshi,Sat)
                    *              1             0             1 
    20 x(Hiroshi,Sun)
                    *              0             0             1 
    21 x(Hiroshi,Thu)
                    *              1             0             1 
    22 x(Hiroshi,Tue)
                    *              0             0             1 
    23 x(Hiroshi,Wed)
                    *              0             0             1 
    24 x(Kenichi,Fri)
                    *              0             0             1 
    25 x(Kenichi,Mon)
                    *              1             0             1 
    26 x(Kenichi,Sat)
                    *              0             0             1 
    27 x(Kenichi,Sun)
                    *              0             0             1 
    28 x(Kenichi,Thu)
                    *              0             0             1 
    29 x(Kenichi,Tue)
                    *              1             0             1 
    30 x(Kenichi,Wed)
                    *              1             0             1 
    31 x(Kohei,Fri) *              0             0             1 
    32 x(Kohei,Mon) *              0             0             1 
    33 x(Kohei,Sat) *              0             0             1 
    34 x(Kohei,Sun) *              0             0             1 
    35 x(Kohei,Thu) *              1             0             1 
    36 x(Kohei,Tue) *              1             0             1 
    37 x(Kohei,Wed) *              0             0             1 
    38 x(Masamichi,Fri)
                    *              0             0             1 
    39 x(Masamichi,Mon)
                    *              0             0             1 
    40 x(Masamichi,Sat)
                    *              0             0             1 
    41 x(Masamichi,Sun)
                    *              0             0             1 
    42 x(Masamichi,Thu)
                    *              0             0             1 
    43 x(Masamichi,Tue)
                    *              1             0             1 
    44 x(Masamichi,Wed)
                    *              1             0             1 
    45 x(Mayuko,Fri)
                    *              0             0             1 
    46 x(Mayuko,Mon)
                    *              1             0             1 
    47 x(Mayuko,Sat)
                    *              0             0             1 
    48 x(Mayuko,Sun)
                    *              0             0             1 
    49 x(Mayuko,Thu)
                    *              0             0             1 
    50 x(Mayuko,Tue)
                    *              0             0             1 
    51 x(Mayuko,Wed)
                    *              1             0             1 
    52 x(Shota,Fri) *              0             0             1 
    53 x(Shota,Mon) *              0             0             1 
    54 x(Shota,Sat) *              1             0             1 
    55 x(Shota,Sun) *              1             0             1 
    56 x(Shota,Thu) *              0             0             1 
    57 x(Shota,Tue) *              0             0             1 
    58 x(Shota,Wed) *              0             0             1 
    59 x(Syori,Fri) *              0             0             1 
    60 x(Syori,Mon) *              0             0             1 
    61 x(Syori,Sat) *              1             0             1 
    62 x(Syori,Sun) *              1             0             1 
    63 x(Syori,Thu) *              0             0             1 
    64 x(Syori,Tue) *              0             0             1 
    65 x(Syori,Wed) *              0             0             1 
    66 x(Takuya,Fri)
                    *              1             0             1 
    67 x(Takuya,Mon)
                    *              0             0             1 
    68 x(Takuya,Sat)
                    *              0             0             1 
    69 x(Takuya,Sun)
                    *              1             0             1 
    70 x(Takuya,Thu)
                    *              1             0             1 
    71 x(Takuya,Tue)
                    *              0             0             1 
    72 x(Takuya,Wed)
                    *              0             0             1 
    73 x(Tomoya,Fri)
                    *              0             0             1 
    74 x(Tomoya,Mon)
                    *              0             0             1 
    75 x(Tomoya,Sat)
                    *              1             0             1 
    76 x(Tomoya,Sun)
                    *              0             0             1 
    77 x(Tomoya,Thu)
                    *              1             0             1 
    78 x(Tomoya,Tue)
                    *              0             0             1 
    79 x(Tomoya,Wed)
                    *              0             0             1 

Integer feasibility conditions:

KKT.PE: max.abs.err = 0.00e+00 on row 0
        max.rel.err = 0.00e+00 on row 0
        High quality

KKT.PB: max.abs.err = 0.00e+00 on row 0
        max.rel.err = 0.00e+00 on row 0
        High quality

End of output
